8325
3, 17, 7, 42, 2, 30, 23, 21, 31, 18, 22, 1, 32, 49, 35, 36, 39, 40, 38, 24, 48, 46, 16, 29, 20, 50, 44, 34, 37, 15, 5, 6, 4, 25, 28, 27, 26, 47, 13, 14, 52, 11, 51, 12, 33, 43, 10, 9, 8, 41, 45, 19
